set VV := 0 1 2 3 4 5 ;
set VS := 0 1 2 3 4 5 6 7 8 9 10 11 12 13 14 15 ;
param cv := 
0 20
1 21
2 10
3 24
4 24
5 14
;
param cs := 
0 29
1 25
2 27
3 20
4 24
5 26
6 38
7 35
8 37
9 37
10 40
11 38
12 25
13 32
14 29
15 28
;
param bv:	 0 1 2 3 4 5 := 
		0 0 23 19 0 0 0 
		1 0 0 0 0 12 0 
		2 0 0 0 24 0 19 
		3 0 0 0 0 0 0 
		4 0 0 0 0 0 0 
		5 0 0 0 0 0 0 
;
param bs:	 0 1 2 3 4 5 6 7 8 9 10 11 12 13 14 15 := 
		0 0 0 0 0 0 0 0 38 38 0 0 0 0 0 0 0 
		1 0 0 31 0 0 0 0 0 0 0 0 0 0 0 32 0 
		2 0 31 0 0 33 0 0 0 0 0 0 34 0 0 29 0 
		3 0 0 0 0 0 0 30 0 0 0 25 0 37 0 0 20 
		4 0 0 33 0 0 0 0 0 0 24 0 0 0 0 0 0 
		5 0 0 0 0 0 0 27 0 20 0 0 0 0 0 25 0 
		6 0 0 0 30 0 27 0 31 24 0 0 0 0 0 0 0 
		7 38 0 0 0 0 0 31 0 0 0 21 21 0 0 0 0 
		8 38 0 0 0 0 20 24 0 0 0 0 0 0 0 0 28 
		9 0 0 0 0 24 0 0 0 0 0 0 0 0 0 0 0 
		10 0 0 0 25 0 0 0 21 0 0 0 0 37 0 34 0 
		11 0 0 34 0 0 0 0 21 0 0 0 0 0 0 0 23 
		12 0 0 0 37 0 0 0 0 0 0 37 0 0 0 0 0 
		13 0 0 0 0 0 0 0 0 0 0 0 0 0 0 0 38 
		14 0 32 29 0 0 25 0 0 0 0 34 0 0 0 0 0 
		15 0 0 0 20 0 0 0 0 28 0 0 23 0 38 0 0 
;
